NAME          DCAP_2_4_3_500_SS130
ROWS
 N  OBJ
 L  CON1
 L  CON2
 L  CON3
 L  CON4
 L  CON5
 L  CON6
 L  CON7
 L  CON8
 L  CON9
 L  CON10
 L  CON11
 L  CON12
 E  CON13
 E  CON14
 E  CON15
 E  CON16
 E  CON17
 E  CON18
 E  CON19
 E  CON20
 E  CON21
 E  CON22
 E  CON23
 E  CON24
COLUMNS
    x[1,1]    OBJ       6.180167      CON1      1.000000    
    x[1,1]    CON7      -1.000000     CON8      -1.000000   
    x[1,1]    CON9      -1.000000   
    x[1,2]    OBJ       6.563535      CON2      1.000000    
    x[1,2]    CON8      -1.000000     CON9      -1.000000   
    x[1,3]    OBJ       7.443064      CON3      1.000000    
    x[1,3]    CON9      -1.000000   
    x[2,1]    OBJ       6.732585      CON4      1.000000    
    x[2,1]    CON10     -1.000000     CON11     -1.000000   
    x[2,1]    CON12     -1.000000   
    x[2,2]    OBJ       5.039546      CON5      1.000000    
    x[2,2]    CON11     -1.000000     CON12     -1.000000   
    x[2,3]    OBJ       6.054841      CON6      1.000000    
    x[2,3]    CON12     -1.000000   
    MARKER    'MARKER'                'INTORG'
    u[1,1]    OBJ       48.076654     CON1      -1.000000   
    u[1,2]    OBJ       20.066487     CON2      -1.000000   
    u[1,3]    OBJ       32.230043     CON3      -1.000000   
    u[2,1]    OBJ       49.996186     CON4      -1.000000   
    u[2,2]    OBJ       49.466655     CON5      -1.000000   
    u[2,3]    OBJ       27.484319     CON6      -1.000000   
    y[1,1,1]  OBJ       6.802901      CON7      0.667264    
    y[1,1,1]  CON13     1.000000    
    y[1,1,2]  OBJ       9.812694      CON8      0.930994    
    y[1,1,2]  CON14     1.000000    
    y[1,1,3]  OBJ       7.928082      CON9      0.669892    
    y[1,1,3]  CON15     1.000000    
    y[1,2,1]  OBJ       5.552819      CON7      1.395928    
    y[1,2,1]  CON16     1.000000    
    y[1,2,2]  OBJ       8.664908      CON8      0.908383    
    y[1,2,2]  CON17     1.000000    
    y[1,2,3]  OBJ       6.679431      CON9      1.348256    
    y[1,2,3]  CON18     1.000000    
    y[1,3,1]  OBJ       5.653332      CON7      0.584423    
    y[1,3,1]  CON19     1.000000    
    y[1,3,2]  OBJ       8.743905      CON8      1.234073    
    y[1,3,2]  CON20     1.000000    
    y[1,3,3]  OBJ       6.613124      CON9      1.385127    
    y[1,3,3]  CON21     1.000000    
    y[1,4,1]  OBJ       5.115256      CON7      0.996805    
    y[1,4,1]  CON22     1.000000    
    y[1,4,2]  OBJ       9.170198      CON8      0.729364    
    y[1,4,2]  CON23     1.000000    
    y[1,4,3]  OBJ       5.858362      CON9      0.851652    
    y[1,4,3]  CON24     1.000000    
    y[2,1,1]  OBJ       8.713902      CON10     0.667264    
    y[2,1,1]  CON13     1.000000    
    y[2,1,2]  OBJ       6.313942      CON11     0.930994    
    y[2,1,2]  CON14     1.000000    
    y[2,1,3]  OBJ       6.522625      CON12     0.669892    
    y[2,1,3]  CON15     1.000000    
    y[2,2,1]  OBJ       9.337790      CON10     1.395928    
    y[2,2,1]  CON16     1.000000    
    y[2,2,2]  OBJ       7.402099      CON11     0.908383    
    y[2,2,2]  CON17     1.000000    
    y[2,2,3]  OBJ       7.246603      CON12     1.348256    
    y[2,2,3]  CON18     1.000000    
    y[2,3,1]  OBJ       5.903984      CON10     0.584423    
    y[2,3,1]  CON19     1.000000    
    y[2,3,2]  OBJ       7.826835      CON11     1.234073    
    y[2,3,2]  CON20     1.000000    
    y[2,3,3]  OBJ       7.053079      CON12     1.385127    
    y[2,3,3]  CON21     1.000000    
    y[2,4,1]  OBJ       7.438250      CON10     0.996805    
    y[2,4,1]  CON22     1.000000    
    y[2,4,2]  OBJ       7.826966      CON11     0.729364    
    y[2,4,2]  CON23     1.000000    
    y[2,4,3]  OBJ       7.023556      CON12     0.851652    
    y[2,4,3]  CON24     1.000000    
    z[1,1]    OBJ       645.491705    CON13     1.000000    
    z[1,2]    OBJ       762.681210    CON14     1.000000    
    z[1,3]    OBJ       777.705603    CON15     1.000000    
    z[2,1]    OBJ       599.831108    CON16     1.000000    
    z[2,2]    OBJ       541.031875    CON17     1.000000    
    z[2,3]    OBJ       770.656884    CON18     1.000000    
    z[3,1]    OBJ       670.476704    CON19     1.000000    
    z[3,2]    OBJ       856.574369    CON20     1.000000    
    z[3,3]    OBJ       864.331651    CON21     1.000000    
    z[4,1]    OBJ       519.366971    CON22     1.000000    
    z[4,2]    OBJ       786.044787    CON23     1.000000    
    z[4,3]    OBJ       985.780649    CON24     1.000000    
    MARKER    'MARKER'                 'INTEND'
RHS
    RHS       CON1      -0.000000     CON2      -0.000000   
    RHS       CON3      -0.000000     CON4      -0.000000   
    RHS       CON5      -0.000000     CON6      -0.000000   
    RHS       CON7      -0.000000     CON8      -0.000000   
    RHS       CON9      -0.000000     CON10     -0.000000   
    RHS       CON11     -0.000000     CON12     -0.000000   
    RHS       CON13     1.000000      CON14     1.000000    
    RHS       CON15     1.000000      CON16     1.000000    
    RHS       CON17     1.000000      CON18     1.000000    
    RHS       CON19     1.000000      CON20     1.000000    
    RHS       CON21     1.000000      CON22     1.000000    
    RHS       CON23     1.000000      CON24     1.000000    
BOUNDS
 BV BOUND     u[1,1]  
 BV BOUND     u[1,2]  
 BV BOUND     u[1,3]  
 BV BOUND     u[2,1]  
 BV BOUND     u[2,2]  
 BV BOUND     u[2,3]  
 BV BOUND     y[1,1,1]
 BV BOUND     y[1,1,2]
 BV BOUND     y[1,1,3]
 BV BOUND     y[1,2,1]
 BV BOUND     y[1,2,2]
 BV BOUND     y[1,2,3]
 BV BOUND     y[1,3,1]
 BV BOUND     y[1,3,2]
 BV BOUND     y[1,3,3]
 BV BOUND     y[1,4,1]
 BV BOUND     y[1,4,2]
 BV BOUND     y[1,4,3]
 BV BOUND     y[2,1,1]
 BV BOUND     y[2,1,2]
 BV BOUND     y[2,1,3]
 BV BOUND     y[2,2,1]
 BV BOUND     y[2,2,2]
 BV BOUND     y[2,2,3]
 BV BOUND     y[2,3,1]
 BV BOUND     y[2,3,2]
 BV BOUND     y[2,3,3]
 BV BOUND     y[2,4,1]
 BV BOUND     y[2,4,2]
 BV BOUND     y[2,4,3]
 BV BOUND     z[1,1]  
 BV BOUND     z[1,2]  
 BV BOUND     z[1,3]  
 BV BOUND     z[2,1]  
 BV BOUND     z[2,2]  
 BV BOUND     z[2,3]  
 BV BOUND     z[3,1]  
 BV BOUND     z[3,2]  
 BV BOUND     z[3,3]  
 BV BOUND     z[4,1]  
 BV BOUND     z[4,2]  
 BV BOUND     z[4,3]  
ENDATA
